Debug: configOverride contents: IsWeighted_ObjFunc add_break_callback add_generate_reports add_threshold_distance_rssv bw_multiplier capacities cover_mode coverages cust_max_id distance_matrix loc_max_id max_ite_subprob_rssv method method_post_opt method_rssv_fp method_rssv_sp output p seed service size_subproblems_rssv subarea threads time time_cplex time_subprob_rssv weights 
Loading instance...
Scanning input data...
Distance matrix dimensions: 3039 x 3039 = 9235521
Elapsed time: 0 ms

Loading weights...
Skipped line: customer weight coord_x coord_y
Loaded 3038 weights
Loaded 3038 coordinates
Total customer demand: 152693.00
Elapsed time: 23 ms

Loading capacities...
Skipped line: location capacity coord_x coord_y
Loaded 3038 capacities
Loaded 3038 coordinates
Elapsed time: 7 ms

Loading distance matrix...
Computing euclidian distances...
bw multiplier: 0.50
Loaded 9232482 distances
dists stdev: 862.93
bandwidth h: 18.49
locations: 3038
customers: 3038
p: 800
Elapsed time: 277 ms

[INFO] Instance loaded
loc_max_id: 3038
loc_cnt: 3038
service: p3038_800
cust_max_id: 3038
cust_cnt: 3038
unweighted obj function
p: 800
total_demand: 152693.00


-------------------------------------------------
-------------------------------------------------
    EXACT_CPMP_BIN
-------------------------------------------------
Default row names c1, c2 ... being created.
Version identifier: 22.1.1.0 | 2022-11-28 | 9160aff4d
CPXPARAM_TimeLimit                               3600
Tried aggregator 1 time.
Presolve has eliminated 0 rows and 0 columns...
Reduced MIP has 6077 rows, 9232482 columns, and 18464964 nonzeros.
Reduced MIP has 9232482 binaries, 0 generals, 0 SOSs, and 0 indicators.
Presolve time = 78.81 sec. (16445.21 ticks)
Tried aggregator 1 time.
Presolve has eliminated 0 rows and 0 columns...
Detecting symmetries...
Reduced MIP has 6077 rows, 9232482 columns, and 18464964 nonzeros.
Reduced MIP has 9232482 binaries, 0 generals, 0 SOSs, and 0 indicators.
Presolve time = 98.54 sec. (18570.00 ticks)
Probing time = 37.53 sec. (2185.65 ticks)
Clique table members: 9232482.
MIP emphasis: balance optimality and feasibility.
MIP search method: dynamic search.
Parallel mode: deterministic, using up to 32 threads.
Root relaxation solution time = 197.12 sec. (15850.14 ticks)

        Nodes                                         Cuts/
   Node  Left     Objective  IInf  Best Integer    Best Bound    ItCnt     Gap

*     0+    0                      2912364.4463        0.0000           100.00%
*     0+    0                      2896436.7942        0.0000           100.00%
*     0+    0                      2606962.2592        0.0000           100.00%
*     0+    0                      2456709.3192        0.0000           100.00%
*     0+    0                      2299918.8066        0.0000           100.00%
*     0+    0                      2156837.1972        0.0000           100.00%
      0     0       -0.0000  2839  2156837.1972        0.0000     2888  100.00%
*     0+    0                      2076865.9723        0.0000           100.00%
*     0+    0                      2043261.6589        0.0000           100.00%
      0     0    44669.6751  3678  2043261.6589    Cuts: 1619     6048   97.81%
      0     0    71281.4431  4866  2043261.6589    Cuts: 1619     8854   96.51%
      0     0    82052.2718  5444  2043261.6589    Cuts: 1619    11554   95.98%
*     0+    0                      2043226.7429    82052.2718            95.98%
*     0+    0                      2016830.4822    82052.2718            95.93%
      0     0    85384.5912  5283  2016830.4822    Cuts: 1619    13966   95.77%
      0     0    88799.6007  5069  2016830.4822    Cuts: 1619    16033   95.60%
Detecting symmetries...
      0     0    93613.7229  5822  2016830.4822    Cuts: 1619    18483   95.36%
      0     0    95850.7624  5652  2016830.4822    Cuts: 1619    20781   95.25%
      0     0    97265.4051  5631  2016830.4822    Cuts: 1619    23072   95.18%
*     0+    0                       840794.4390    97265.4051            88.43%
*     0+    0                       598066.2971    97265.4051            83.74%
      0     0    98167.1622  5586   598066.2971    Cuts: 1619    25498   83.59%
*     0+    0                       252834.5237    98167.1622            61.17%
      0     0    98677.3280  5282   252834.5237    Cuts: 1439    27569   60.97%
      0     0    98950.7040  5081   252834.5237     Cuts: 981    29180   60.86%

Clique cuts applied:  3506
Cover cuts applied:  6986
Flow cuts applied:  242
Mixed integer rounding cuts applied:  719
Zero-half cuts applied:  1602

Root node processing (before b&c):
  Real time             = 3610.63 sec. (1263731.88 ticks)
Parallel b&c, 32 threads:
  Real time             =    0.00 sec. (0.00 ticks)
  Sync time (average)   =    0.00 sec.
  Wait time (average)   =    0.00 sec.
                          ------------
Total (root+branch&cut) = 3610.63 sec. (1263731.88 ticks)
[INFO] Saving variables cplex:
./outputs/solutions/2024-08-26_LIT/VarsValues_cplex/test_lit_p3038_800_CPMP_Vars_Bin_p_800_EXACT_CPMP_BIN.txt
[INFO] Saving results cplex: 
./outputs/solutions/2024-08-26_LIT/Results_cplex/test_lit_p3038_800_Bin_EXACT_CPMP_BIN.csv

Final solution CPMP:
p locations: 3038 3036 3025 3010 2997 2983 2980 2977 2973 2972 2971 2970 2964 2961 2956 2955 2954 2951 2947 2946 2935 2933 2932 2928 2927 2926 2919 2917 2916 2915 2913 2912 2910 2909 2908 2907 2906 2905 2904 2897 2895 2893 2888 2886 2883 2881 2875 2874 2868 2856 2850 2849 2845 2844 2835 2823 2808 2806 2793 2787 2780 2766 2759 2749 2748 2742 1001 292 984 2402 978 269 961 252 949 938 936 227 908 199 2301 881 840 131 834 125 2252 828 119 797 1506 780 775 2193 770 765 56 763 54 760 51 750 41 749 40 745 36 2163 1449 735 3012 26 2937 1444 2153 733 727 711 2 704 684 677 675 671 1380 669 1378 668 661 652 2070 651 639 2057 636 635 1340 962 253 625 623 2036 1314 604 603 2730 597 2724 586 584 1293 2711 573 572 1281 570 904 2322 567 566 2768 1275 2693 563 1981 2690 559 1268 2686 2680 552 882 2300 539 1248 875 2293 538 1956 537 535 871 1580 2289 534 532 2022 529 528 525 2015 522 1940 520 1229 519 1228 855 518 854 1935 852 515 512 510 506 505 501 500 495 489 1198 486 2613 2612 483 482 473 472 2599 1957 464 461 498 161 144 475 1184 305 301 2428 469 132 129 296 2423 799 90 629 2992 1499 116 530 1239 2657 193 2320 788 114 2241 787 78 1496 113 280 1698 526 2653 784 110 1528 444 109 276 764 758 84 251 418 157 2284 752 43 919 77 860 2278 523 2650 186 693 618 2111 356 1065 1774 19 1437 353 2480 360 1778 23 527 190 357 1066 21 474 2264 58 850 176 9 2136 355 2351 858 521 184 2311 221 2182 689 15 839 130 502 1920 165 2993 7 716 1759 44 211 2338 93 18 1511 688 3000 14 1766 804 392 1885 1101 2594 725 218 2432 939 2357 265 2392 897 223 1641 779 105 2232 272 1690 63 772 2974 1481 362 25 2936 1443 359 2486 2634 170 337 686 12 2139 383 1092 111 3015 29 366 69 115 112 449 710 707 33 73 1491 712 2130 38 375 1084 1793 795 2213 458 1167 121 2248 455 2582 42 676 2169 122 3034 48 1466 719 382 2150 657 320 245 1738 411 1829 1567 74 2668 204 913 708 371 1080 206 212 137 1630 217 2344 1540 47 384 1093 220 231 569 232 399 237 1655 239 243 246 922 138 1631 250 2791 1298 591 2718 254 2381 290 644 307 309 2439 653 316 1028 322 1740 323 248 1741 957 2450 329 2497 1004 1039 1748 1009 335 1044 345 1054 2472 691 354 1772 702 2120 28 365 2198 705 32 369 1078 380 386 393 405 330 1823 416 1125 341 1834 1918 425 1843 2552 2259 766 429 1138 1063 2556 2261 768 431 1591 98 435 2637 1144 2562 437 117 454 1011 1015 1026 1735 1040 256 1749 1047 1756 972 2465 1048 1052 2470 1088 1097 1107 1032 2525 2602 1109 1818 2610 1117 1826 2535 1135 2553 2629 1136 1061 2554 1139 2557 1152 368 1861 1155 1179 1104 2597 1186 1205 1222 1931 1240 1949 2750 1257 1258 2756 1263 1270 1283 1285 1288 1997 1289 1214 2707 1299 1310 2728 2804 1311 2729 1320 1328 1335 1336 1354 1367 1376 2876 1383 2880 1387 2887 1394 2892 1399 2108 1407 1418 634 2127 1429 2138 1431 2140 2931 1438 2147 2948 1455 2957 1464 2173 2975 1482 2994 8 1501 2210 2996 1503 17 1510 3008 1515 3035 49 1542 1546 1560 1565 1574 790 2283 1576 100 1593 1600 1626 134 1627 2336 1633 153 1646 159 1652 1665 1673 1675 1678 894 2387 1680 189 1682 1695 1703 1706 1715 1721 2430 1726 1728 240 1733 1751 261 1754 2463 1782 2491 312 1805 1808 319 1812 1814 1030 2523 1820 2529 1835 348 1841 2550 1851 1854 370 1863 1079 2572 1869 2578 1897 409 1902 1906 1915 1917 2626 1932 2641 1934 467 1960 485 1978 1980 1983 507 2000 517 2010 2017 2026 541 2034 545 2038 553 2046 589 2082 605 2098 2114 2121 631 2124 2157 699 2192 2199 2214 2231 740 2233 742 2235 2250 2260 2282 2295 811 2304 2305 2307 2319 2352 2369 883 2376 2385 2395 2410 920 2413 2414 933 2426 2485 2499 2531 2555 2561 2566 2567 2569 2574 2587 2589 2592 2593 2595 2603 1112 2605 2607 2614 2620 2621 2630 2635 2636 2673 2678 2710 2720 2725 2727 2736 
p size: 800
objective: 252834.523718314623693
sum (dij * xij) 
demand/capacity: 152693.000000000000000/190400
Solution is Feasible
Statistics:
Max distance: 1201.439969370088875
Min distance: 0.000000000000000
Avg distance: 83.224003857246416
Std deviation distance: 130.383446778412747


Final total elapsed time: 3686s
[INFO] Saving assignment: ./outputs/solutions/2024-08-26_LIT/Assignments/test_lit_p3038_800_p_800_EXACT_CPMP_BIN.txt
[INFO] Saving results: ./outputs/solutions/2024-08-26_LIT/test_lit_p3038_800_results_EXACT_CPMP_BIN.csv
[INFO] Saving all results: ./outputs/solutions/test_all_results.csv
Post Optimization: null


-------------------------------------------------
Post Optimization
-------------------------------------------------
method: null
-------------------------------------------------
Time for post-optimization: -86.000000000000000s
PostOptimization constructor
p locations: 3038 3036 3025 3010 2997 2983 2980 2977 2973 2972 2971 2970 2964 2961 2956 2955 2954 2951 2947 2946 2935 2933 2932 2928 2927 2926 2919 2917 2916 2915 2913 2912 2910 2909 2908 2907 2906 2905 2904 2897 2895 2893 2888 2886 2883 2881 2875 2874 2868 2856 2850 2849 2845 2844 2835 2823 2808 2806 2793 2787 2780 2766 2759 2749 2748 2742 1001 292 984 2402 978 269 961 252 949 938 936 227 908 199 2301 881 840 131 834 125 2252 828 119 797 1506 780 775 2193 770 765 56 763 54 760 51 750 41 749 40 745 36 2163 1449 735 3012 26 2937 1444 2153 733 727 711 2 704 684 677 675 671 1380 669 1378 668 661 652 2070 651 639 2057 636 635 1340 962 253 625 623 2036 1314 604 603 2730 597 2724 586 584 1293 2711 573 572 1281 570 904 2322 567 566 2768 1275 2693 563 1981 2690 559 1268 2686 2680 552 882 2300 539 1248 875 2293 538 1956 537 535 871 1580 2289 534 532 2022 529 528 525 2015 522 1940 520 1229 519 1228 855 518 854 1935 852 515 512 510 506 505 501 500 495 489 1198 486 2613 2612 483 482 473 472 2599 1957 464 461 498 161 144 475 1184 305 301 2428 469 132 129 296 2423 799 90 629 2992 1499 116 530 1239 2657 193 2320 788 114 2241 787 78 1496 113 280 1698 526 2653 784 110 1528 444 109 276 764 758 84 251 418 157 2284 752 43 919 77 860 2278 523 2650 186 693 618 2111 356 1065 1774 19 1437 353 2480 360 1778 23 527 190 357 1066 21 474 2264 58 850 176 9 2136 355 2351 858 521 184 2311 221 2182 689 15 839 130 502 1920 165 2993 7 716 1759 44 211 2338 93 18 1511 688 3000 14 1766 804 392 1885 1101 2594 725 218 2432 939 2357 265 2392 897 223 1641 779 105 2232 272 1690 63 772 2974 1481 362 25 2936 1443 359 2486 2634 170 337 686 12 2139 383 1092 111 3015 29 366 69 115 112 449 710 707 33 73 1491 712 2130 38 375 1084 1793 795 2213 458 1167 121 2248 455 2582 42 676 2169 122 3034 48 1466 719 382 2150 657 320 245 1738 411 1829 1567 74 2668 204 913 708 371 1080 206 212 137 1630 217 2344 1540 47 384 1093 220 231 569 232 399 237 1655 239 243 246 922 138 1631 250 2791 1298 591 2718 254 2381 290 644 307 309 2439 653 316 1028 322 1740 323 248 1741 957 2450 329 2497 1004 1039 1748 1009 335 1044 345 1054 2472 691 354 1772 702 2120 28 365 2198 705 32 369 1078 380 386 393 405 330 1823 416 1125 341 1834 1918 425 1843 2552 2259 766 429 1138 1063 2556 2261 768 431 1591 98 435 2637 1144 2562 437 117 454 1011 1015 1026 1735 1040 256 1749 1047 1756 972 2465 1048 1052 2470 1088 1097 1107 1032 2525 2602 1109 1818 2610 1117 1826 2535 1135 2553 2629 1136 1061 2554 1139 2557 1152 368 1861 1155 1179 1104 2597 1186 1205 1222 1931 1240 1949 2750 1257 1258 2756 1263 1270 1283 1285 1288 1997 1289 1214 2707 1299 1310 2728 2804 1311 2729 1320 1328 1335 1336 1354 1367 1376 2876 1383 2880 1387 2887 1394 2892 1399 2108 1407 1418 634 2127 1429 2138 1431 2140 2931 1438 2147 2948 1455 2957 1464 2173 2975 1482 2994 8 1501 2210 2996 1503 17 1510 3008 1515 3035 49 1542 1546 1560 1565 1574 790 2283 1576 100 1593 1600 1626 134 1627 2336 1633 153 1646 159 1652 1665 1673 1675 1678 894 2387 1680 189 1682 1695 1703 1706 1715 1721 2430 1726 1728 240 1733 1751 261 1754 2463 1782 2491 312 1805 1808 319 1812 1814 1030 2523 1820 2529 1835 348 1841 2550 1851 1854 370 1863 1079 2572 1869 2578 1897 409 1902 1906 1915 1917 2626 1932 2641 1934 467 1960 485 1978 1980 1983 507 2000 517 2010 2017 2026 541 2034 545 2038 553 2046 589 2082 605 2098 2114 2121 631 2124 2157 699 2192 2199 2214 2231 740 2233 742 2235 2250 2260 2282 2295 811 2304 2305 2307 2319 2352 2369 883 2376 2385 2395 2410 920 2413 2414 933 2426 2485 2499 2531 2555 2561 2566 2567 2569 2574 2587 2589 2592 2593 2595 2603 1112 2605 2607 2614 2620 2621 2630 2635 2636 2673 2678 2710 2720 2725 2727 2736 
p size: 800
objective: 252834.523718314623693
sum (dij * xij) 
demand/capacity: 152693.000000000000000/190400
Solution is Feasible
[INFO] Running post-optimization
Time limit: -86.000000000000000
Max size of the neigh: 2



Finishing post-optimization
p locations: 3038 3036 3025 3010 2997 2983 2980 2977 2973 2972 2971 2970 2964 2961 2956 2955 2954 2951 2947 2946 2935 2933 2932 2928 2927 2926 2919 2917 2916 2915 2913 2912 2910 2909 2908 2907 2906 2905 2904 2897 2895 2893 2888 2886 2883 2881 2875 2874 2868 2856 2850 2849 2845 2844 2835 2823 2808 2806 2793 2787 2780 2766 2759 2749 2748 2742 1001 292 984 2402 978 269 961 252 949 938 936 227 908 199 2301 881 840 131 834 125 2252 828 119 797 1506 780 775 2193 770 765 56 763 54 760 51 750 41 749 40 745 36 2163 1449 735 3012 26 2937 1444 2153 733 727 711 2 704 684 677 675 671 1380 669 1378 668 661 652 2070 651 639 2057 636 635 1340 962 253 625 623 2036 1314 604 603 2730 597 2724 586 584 1293 2711 573 572 1281 570 904 2322 567 566 2768 1275 2693 563 1981 2690 559 1268 2686 2680 552 882 2300 539 1248 875 2293 538 1956 537 535 871 1580 2289 534 532 2022 529 528 525 2015 522 1940 520 1229 519 1228 855 518 854 1935 852 515 512 510 506 505 501 500 495 489 1198 486 2613 2612 483 482 473 472 2599 1957 464 461 498 161 144 475 1184 305 301 2428 469 132 129 296 2423 799 90 629 2992 1499 116 530 1239 2657 193 2320 788 114 2241 787 78 1496 113 280 1698 526 2653 784 110 1528 444 109 276 764 758 84 251 418 157 2284 752 43 919 77 860 2278 523 2650 186 693 618 2111 356 1065 1774 19 1437 353 2480 360 1778 23 527 190 357 1066 21 474 2264 58 850 176 9 2136 355 2351 858 521 184 2311 221 2182 689 15 839 130 502 1920 165 2993 7 716 1759 44 211 2338 93 18 1511 688 3000 14 1766 804 392 1885 1101 2594 725 218 2432 939 2357 265 2392 897 223 1641 779 105 2232 272 1690 63 772 2974 1481 362 25 2936 1443 359 2486 2634 170 337 686 12 2139 383 1092 111 3015 29 366 69 115 112 449 710 707 33 73 1491 712 2130 38 375 1084 1793 795 2213 458 1167 121 2248 455 2582 42 676 2169 122 3034 48 1466 719 382 2150 657 320 245 1738 411 1829 1567 74 2668 204 913 708 371 1080 206 212 137 1630 217 2344 1540 47 384 1093 220 231 569 232 399 237 1655 239 243 246 922 138 1631 250 2791 1298 591 2718 254 2381 290 644 307 309 2439 653 316 1028 322 1740 323 248 1741 957 2450 329 2497 1004 1039 1748 1009 335 1044 345 1054 2472 691 354 1772 702 2120 28 365 2198 705 32 369 1078 380 386 393 405 330 1823 416 1125 341 1834 1918 425 1843 2552 2259 766 429 1138 1063 2556 2261 768 431 1591 98 435 2637 1144 2562 437 117 454 1011 1015 1026 1735 1040 256 1749 1047 1756 972 2465 1048 1052 2470 1088 1097 1107 1032 2525 2602 1109 1818 2610 1117 1826 2535 1135 2553 2629 1136 1061 2554 1139 2557 1152 368 1861 1155 1179 1104 2597 1186 1205 1222 1931 1240 1949 2750 1257 1258 2756 1263 1270 1283 1285 1288 1997 1289 1214 2707 1299 1310 2728 2804 1311 2729 1320 1328 1335 1336 1354 1367 1376 2876 1383 2880 1387 2887 1394 2892 1399 2108 1407 1418 634 2127 1429 2138 1431 2140 2931 1438 2147 2948 1455 2957 1464 2173 2975 1482 2994 8 1501 2210 2996 1503 17 1510 3008 1515 3035 49 1542 1546 1560 1565 1574 790 2283 1576 100 1593 1600 1626 134 1627 2336 1633 153 1646 159 1652 1665 1673 1675 1678 894 2387 1680 189 1682 1695 1703 1706 1715 1721 2430 1726 1728 240 1733 1751 261 1754 2463 1782 2491 312 1805 1808 319 1812 1814 1030 2523 1820 2529 1835 348 1841 2550 1851 1854 370 1863 1079 2572 1869 2578 1897 409 1902 1906 1915 1917 2626 1932 2641 1934 467 1960 485 1978 1980 1983 507 2000 517 2010 2017 2026 541 2034 545 2038 553 2046 589 2082 605 2098 2114 2121 631 2124 2157 699 2192 2199 2214 2231 740 2233 742 2235 2250 2260 2282 2295 811 2304 2305 2307 2319 2352 2369 883 2376 2385 2395 2410 920 2413 2414 933 2426 2485 2499 2531 2555 2561 2566 2567 2569 2574 2587 2589 2592 2593 2595 2603 1112 2605 2607 2614 2620 2621 2630 2635 2636 2673 2678 2710 2720 2725 2727 2736 
p size: 800
objective: 252834.523718314623693
sum (dij * xij) 
demand/capacity: 152693.000000000000000/190400
Solution is Feasible
Solution Stats
Statistics:
Max distance: 1201.439969370088875
Min distance: 0.000000000000000
Avg distance: 83.224003857246416
Std deviation distance: 130.383446778412747


[INFO] Saving assignment: ./outputs/solutions/2024-08-26_LIT/Assignments/test_lit_p3038_800_p_800_EXACT_CPMP_BIN_POSTOPT.txt
[INFO] Saving results: ./outputs/solutions/2024-08-26_LIT/test_lit_p3038_800_results_EXACT_CPMP_BIN_POSTOPT.csv
[INFO] Saving all results: ./outputs/solutions/test_all_results.csv
Final total elapsed time (post opt): 3686s
Elapsed time: 3686218 ms

